p cnf 7230 15
-3770 -4499 4500 0
4497 -4499 0
-2076 -4497 4498 0
4499 -4501 0
-2078 -3774 4502 0
2078 -4503 0
-4502 4503 0
-4500 4501 0
3774 -4503 0
3770 -4501 0
-4498 4499 0
2076 -4499 0
-3776 4497 0
4496 -4497 0
3776 -4496 0
